40
    86    27    68    77    39    46     5    28     2    91    91    86    99    21     4    73    83    52    97    18    35    47     3    49    64    28    32     1     8    65    74     9    31    84    94    14    28    65    39    58
     5     8     2     3     4     1     8     5     7     8     7     4     9     9     7     7    10     7     9     2    10     4    10    10     9     5     8     1     1     3     5     7     4     6     6    10    10     8     2     3
     0     0   152  1288    16   275  1087     0   462  1130  1134   805   798  1273   370  1290     0     0   495     0   199   751  1299   334  1309   735     0     0  1240  1183  1096    78   319     0   459    10   767     0   879   160
